solution status: optimal solution found
objective value:                                    0
$_50_z                                             17 	(obj:0)
$_64_y                                             -1 	(obj:0)
$_64_z                                             16 	(obj:0)
$_39_y                                              4 	(obj:0)
$_39_z                                             19 	(obj:0)
$_43_y                                             -1 	(obj:0)
$_43_z                                             17 	(obj:0)
